p cnf 24 31
-1 5 8 10 16 22 0 
-2 17 23 0 
-3 9 24 0 
-2 17 24 0 
-3 9 23 0 
-4 23 0 
-4 24 0 
-5 1 8 10 16 23 0 
-6 18 20 24 0 
-3 9 24 0 
-7 23 0 
-8 1 5 10 16 23 0 
-3 9 23 0 
-8 1 5 10 16 24 0 
-9 3 22 0 
-9 3 24 0 
-6 18 20 23 0 
-10 1 5 8 16 23 0 
-11 -12 23 0 
-13 15 19 22 0 
-2 17 -14 -15 13 19 23 0 
-11 -14 -12 23 0 
-16 1 5 8 10 22 0 
-17 2 24 0 
-18 6 20 24 0 
-7 24 0 
-19 13 15 23 0 
-17 2 23 0 
-9 3 23 0 
-20 6 18 23 0 
-21 -7 23 0 
